; DUP3 SWAP2 SWAP1 DUP5 ADD SWAP1 => DUP4 ADD DUP3 SWAP2
(set-option :produce-proofs true)
; 
(set-info :status unknown)
(declare-fun storage_t ((_ BitVec 256) (_ BitVec 256) (_ BitVec 256) (_ BitVec 256) Int (_ BitVec 256)) (_ BitVec 256))
(declare-fun storage_s ((_ BitVec 256) (_ BitVec 256) (_ BitVec 256) (_ BitVec 256) Int (_ BitVec 256)) (_ BitVec 256))
(declare-fun exc_halt_t (Int) Bool)
(declare-fun exc_halt_s (Int) Bool)
(declare-fun sc_t (Int) (_ BitVec 6))
(declare-fun stack_t ((_ BitVec 256) (_ BitVec 256) (_ BitVec 256) (_ BitVec 256) Int (_ BitVec 6)) (_ BitVec 256))
(declare-fun stack_s ((_ BitVec 256) (_ BitVec 256) (_ BitVec 256) (_ BitVec 256) Int (_ BitVec 6)) (_ BitVec 256))
(declare-fun sc_s (Int) (_ BitVec 6))
(declare-fun used_gas_t ((_ BitVec 256) (_ BitVec 256) (_ BitVec 256) (_ BitVec 256) Int) Int)
(declare-fun used_gas_s ((_ BitVec 256) (_ BitVec 256) (_ BitVec 256) (_ BitVec 256) Int) Int)
(assert
 (exists ((x_0 (_ BitVec 256)) (x_1 (_ BitVec 256)) (x_2 (_ BitVec 256)) (x_3 (_ BitVec 256)) )(let (($x2922 (forall ((w (_ BitVec 256)) )(let ((?x6184 (storage_t x_0 x_1 x_2 x_3 4 w)))
 (let ((?x2000 (storage_s x_0 x_1 x_2 x_3 6 w)))
 (= ?x2000 ?x6184))))
 ))
 (let (($x3723 (exc_halt_t 4)))
 (let (($x772 (exc_halt_s 6)))
 (let (($x10342 (= $x772 $x3723)))
 (let (($x9653 (forall ((n (_ BitVec 6)) )(let ((?x9790 (stack_t x_0 x_1 x_2 x_3 4 n)))
 (let ((?x11385 (stack_s x_0 x_1 x_2 x_3 6 n)))
 (let (($x802 (= ?x11385 ?x9790)))
 (or $x802 (bvsle (sc_t 4) n))))))
 ))
 (let ((?x1098 (sc_t 4)))
 (let ((?x926 (sc_s 6)))
 (let (($x7104 (= ?x926 ?x1098)))
 (let ((?x1526 (used_gas_t x_0 x_1 x_2 x_3 0)))
 (let ((?x6531 (used_gas_s x_0 x_1 x_2 x_3 0)))
 (let (($x697 (= ?x6531 ?x1526)))
 (let (($x10092 (forall ((w (_ BitVec 256)) )(let ((?x3182 (storage_t x_0 x_1 x_2 x_3 0 w)))
 (let ((?x3924 (storage_s x_0 x_1 x_2 x_3 0 w)))
 (= ?x3924 ?x3182))))
 ))
 (let (($x56 (exc_halt_t 0)))
 (let (($x57 (exc_halt_s 0)))
 (let (($x58 (= $x57 $x56)))
 (let (($x255 (forall ((n (_ BitVec 6)) )(let ((?x63 (sc_t 0)))
 (let (($x6686 (bvsle ?x63 n)))
 (let ((?x8923 (stack_t x_0 x_1 x_2 x_3 0 n)))
 (let ((?x10114 (stack_s x_0 x_1 x_2 x_3 0 n)))
 (let (($x3998 (= ?x10114 ?x8923)))
 (or $x3998 $x6686)))))))
 ))
 (let ((?x63 (sc_t 0)))
 (let ((?x72 (sc_s 0)))
 (let (($x73 (= ?x72 ?x63)))
 (let (($x10555 (= $x3723 (or (exc_halt_t 3) (not (bvsle (_ bv0 6) (bvadd (_ bv61 6) (sc_t 3))))))))
 (let (($x1027 (forall ((w (_ BitVec 256)) )(let ((?x3255 (storage_t x_0 x_1 x_2 x_3 3 w)))
 (let ((?x6184 (storage_t x_0 x_1 x_2 x_3 4 w)))
 (= ?x6184 ?x3255))))
 ))
 (let (($x5784 (forall ((n (_ BitVec 6)) )(let ((?x6221 (stack_t x_0 x_1 x_2 x_3 3 n)))
 (let ((?x9790 (stack_t x_0 x_1 x_2 x_3 4 n)))
 (or (bvsle (bvadd (_ bv61 6) (sc_t 3)) n) (= ?x9790 ?x6221)))))
 ))
 (let (($x11159 (= (used_gas_t x_0 x_1 x_2 x_3 4) (+ 3 (used_gas_t x_0 x_1 x_2 x_3 3)))))
 (let (($x5890 (= (stack_t x_0 x_1 x_2 x_3 4 (bvadd (_ bv62 6) ?x1098)) (stack_t x_0 x_1 x_2 x_3 3 (bvadd (_ bv62 6) (sc_t 3))))))
 (let ((?x8450 (stack_t x_0 x_1 x_2 x_3 3 (bvadd (_ bv63 6) (sc_t 3)))))
 (let (($x1880 (= (stack_t x_0 x_1 x_2 x_3 4 (bvadd (_ bv63 6) ?x1098)) (stack_t x_0 x_1 x_2 x_3 3 (bvadd (_ bv61 6) (sc_t 3))))))
 (let (($x5252 (exc_halt_t 2)))
 (let (($x2918 (or (not (bvsle (_ bv0 6) (bvadd (_ bv61 6) (sc_t 2)))) $x5252 (not (= ((_ extract 6 6) (bvadd (_ bv1 7) (concat (_ bv0 1) (sc_t 2)))) (_ bv0 1))))))
 (let (($x6783 (exc_halt_t 3)))
 (let (($x3728 (forall ((w (_ BitVec 256)) )(let ((?x6920 (storage_t x_0 x_1 x_2 x_3 2 w)))
 (let ((?x3255 (storage_t x_0 x_1 x_2 x_3 3 w)))
 (= ?x3255 ?x6920))))
 ))
 (let (($x3267 (forall ((n (_ BitVec 6)) )(let ((?x2895 (stack_t x_0 x_1 x_2 x_3 2 n)))
 (let ((?x6221 (stack_t x_0 x_1 x_2 x_3 3 n)))
 (or (bvsle (bvadd (_ bv61 6) (sc_t 2)) n) (= ?x6221 ?x2895)))))
 ))
 (let ((?x7323 (used_gas_t x_0 x_1 x_2 x_3 3)))
 (let ((?x2714 (sc_t 2)))
 (let ((?x3527 (bvadd (_ bv63 6) ?x2714)))
 (let ((?x7578 (stack_t x_0 x_1 x_2 x_3 2 ?x3527)))
 (let (($x1787 (= (stack_t x_0 x_1 x_2 x_3 3 (bvadd (_ bv62 6) ?x2714)) (stack_t x_0 x_1 x_2 x_3 2 (bvadd (_ bv62 6) ?x2714)))))
 (let ((?x1348 (bvadd (_ bv61 6) ?x2714)))
 (let ((?x8435 (stack_t x_0 x_1 x_2 x_3 2 ?x1348)))
 (let (($x7668 (= $x5252 (or (exc_halt_t 1) (not (bvsle (_ bv0 6) (bvadd (_ bv62 6) (sc_t 1))))))))
 (let (($x6843 (forall ((w (_ BitVec 256)) )(let ((?x9998 (storage_t x_0 x_1 x_2 x_3 1 w)))
 (let ((?x6920 (storage_t x_0 x_1 x_2 x_3 2 w)))
 (= ?x6920 ?x9998))))
 ))
 (let (($x7194 (forall ((n (_ BitVec 6)) )(let ((?x8118 (stack_t x_0 x_1 x_2 x_3 1 n)))
 (let ((?x2895 (stack_t x_0 x_1 x_2 x_3 2 n)))
 (or (= ?x2895 ?x8118) (bvsle (bvadd (_ bv62 6) (sc_t 1)) n)))))
 ))
 (let ((?x2957 (used_gas_t x_0 x_1 x_2 x_3 2)))
 (let ((?x8347 (sc_t 1)))
 (let ((?x1126 (bvadd (_ bv63 6) ?x8347)))
 (let ((?x5724 (stack_t x_0 x_1 x_2 x_3 1 ?x1126)))
 (let (($x10718 (= ?x7578 (bvadd ?x5724 (stack_t x_0 x_1 x_2 x_3 1 (bvadd (_ bv62 6) ?x8347))))))
 (let (($x6076 (not (= ((_ extract 6 6) (bvadd (_ bv1 7) (concat (_ bv0 1) ?x63))) (_ bv0 1)))))
 (let (($x3508 (exc_halt_t 1)))
 (let (($x3553 (forall ((w (_ BitVec 256)) )(let ((?x3182 (storage_t x_0 x_1 x_2 x_3 0 w)))
 (let ((?x9998 (storage_t x_0 x_1 x_2 x_3 1 w)))
 (= ?x9998 ?x3182))))
 ))
 (let (($x232 (forall ((n (_ BitVec 6)) )(let ((?x8923 (stack_t x_0 x_1 x_2 x_3 0 n)))
 (let ((?x8118 (stack_t x_0 x_1 x_2 x_3 1 n)))
 (or (= ?x8118 ?x8923) (bvsle (bvadd (_ bv60 6) (sc_t 0)) n)))))
 ))
 (let (($x7135 (= ?x8347 (bvadd (_ bv1 6) ?x63))))
 (let (($x7958 (= (stack_t x_0 x_1 x_2 x_3 1 (bvadd (_ bv63 6) ?x63)) (stack_t x_0 x_1 x_2 x_3 0 (bvadd (_ bv63 6) ?x63)))))
 (let (($x2995 (= (stack_t x_0 x_1 x_2 x_3 1 (bvadd (_ bv62 6) ?x63)) (stack_t x_0 x_1 x_2 x_3 0 (bvadd (_ bv62 6) ?x63)))))
 (let (($x8750 (= (stack_t x_0 x_1 x_2 x_3 1 (bvadd (_ bv61 6) ?x63)) (stack_t x_0 x_1 x_2 x_3 0 (bvadd (_ bv61 6) ?x63)))))
 (let ((?x6829 (bvadd (_ bv60 6) ?x63)))
 (let ((?x10622 (stack_t x_0 x_1 x_2 x_3 0 ?x6829)))
 (let (($x10480 (= $x772 (or (exc_halt_s 5) (not (bvsle (_ bv0 6) (bvadd (_ bv62 6) (sc_s 5))))))))
 (let (($x11662 (forall ((w (_ BitVec 256)) )(let ((?x6193 (storage_s x_0 x_1 x_2 x_3 5 w)))
 (let ((?x2000 (storage_s x_0 x_1 x_2 x_3 6 w)))
 (= ?x2000 ?x6193))))
 ))
 (let (($x7791 (forall ((n (_ BitVec 6)) )(let ((?x263 (stack_s x_0 x_1 x_2 x_3 5 n)))
 (let ((?x11385 (stack_s x_0 x_1 x_2 x_3 6 n)))
 (or (bvsle (bvadd (_ bv62 6) (sc_s 5)) n) (= ?x11385 ?x263)))))
 ))
 (let (($x2613 (= (used_gas_s x_0 x_1 x_2 x_3 6) (+ 3 (used_gas_s x_0 x_1 x_2 x_3 5)))))
 (let ((?x10576 (stack_s x_0 x_1 x_2 x_3 5 (bvadd (_ bv63 6) (sc_s 5)))))
 (let (($x4233 (= (stack_s x_0 x_1 x_2 x_3 6 (bvadd (_ bv63 6) ?x926)) (stack_s x_0 x_1 x_2 x_3 5 (bvadd (_ bv62 6) (sc_s 5))))))
 (let (($x11317 (exc_halt_s 5)))
 (let (($x7471 (= $x11317 (or (exc_halt_s 4) (not (bvsle (_ bv0 6) (bvadd (_ bv62 6) (sc_s 4))))))))
 (let (($x3115 (forall ((w (_ BitVec 256)) )(let ((?x2299 (storage_s x_0 x_1 x_2 x_3 4 w)))
 (let ((?x6193 (storage_s x_0 x_1 x_2 x_3 5 w)))
 (= ?x6193 ?x2299))))
 ))
 (let (($x5771 (forall ((n (_ BitVec 6)) )(let ((?x6341 (stack_s x_0 x_1 x_2 x_3 4 n)))
 (let ((?x263 (stack_s x_0 x_1 x_2 x_3 5 n)))
 (or (bvsle (bvadd (_ bv62 6) (sc_s 4)) n) (= ?x263 ?x6341)))))
 ))
 (let ((?x8400 (used_gas_s x_0 x_1 x_2 x_3 5)))
 (let ((?x4305 (sc_s 4)))
 (let ((?x7978 (bvadd (_ bv63 6) ?x4305)))
 (let ((?x9537 (stack_s x_0 x_1 x_2 x_3 4 ?x7978)))
 (let (($x7012 (= ?x10576 (bvadd ?x9537 (stack_s x_0 x_1 x_2 x_3 4 (bvadd (_ bv62 6) ?x4305))))))
 (let (($x292 (exc_halt_s 3)))
 (let (($x1034 (or $x292 (not (= ((_ extract 6 6) (bvadd (_ bv1 7) (concat (_ bv0 1) (sc_s 3)))) (_ bv0 1))) (not (bvsle (_ bv0 6) (bvadd (_ bv59 6) (sc_s 3)))))))
 (let (($x7172 (exc_halt_s 4)))
 (let (($x4815 (forall ((w (_ BitVec 256)) )(let ((?x9195 (storage_s x_0 x_1 x_2 x_3 3 w)))
 (let ((?x2299 (storage_s x_0 x_1 x_2 x_3 4 w)))
 (= ?x2299 ?x9195))))
 ))
 (let (($x6600 (forall ((n (_ BitVec 6)) )(let ((?x8221 (stack_s x_0 x_1 x_2 x_3 3 n)))
 (let ((?x6341 (stack_s x_0 x_1 x_2 x_3 4 n)))
 (or (= ?x6341 ?x8221) (bvsle (bvadd (_ bv59 6) (sc_s 3)) n)))))
 ))
 (let ((?x4918 (used_gas_s x_0 x_1 x_2 x_3 4)))
 (let ((?x275 (sc_s 3)))
 (let ((?x3893 (bvadd (_ bv63 6) ?x275)))
 (let ((?x7597 (stack_s x_0 x_1 x_2 x_3 3 ?x3893)))
 (let ((?x5458 (bvadd (_ bv62 6) ?x275)))
 (let ((?x6064 (stack_s x_0 x_1 x_2 x_3 3 ?x5458)))
 (let (($x2206 (= (stack_s x_0 x_1 x_2 x_3 4 (bvadd (_ bv61 6) ?x275)) (stack_s x_0 x_1 x_2 x_3 3 (bvadd (_ bv61 6) ?x275)))))
 (let (($x3173 (= (stack_s x_0 x_1 x_2 x_3 4 (bvadd (_ bv60 6) ?x275)) (stack_s x_0 x_1 x_2 x_3 3 (bvadd (_ bv60 6) ?x275)))))
 (let ((?x8537 (bvadd (_ bv59 6) ?x275)))
 (let ((?x2499 (stack_s x_0 x_1 x_2 x_3 3 ?x8537)))
 (let (($x5862 (= $x292 (or (exc_halt_s 2) (not (bvsle (_ bv0 6) (bvadd (_ bv62 6) (sc_s 2))))))))
 (let (($x11167 (forall ((w (_ BitVec 256)) )(let ((?x3403 (storage_s x_0 x_1 x_2 x_3 2 w)))
 (let ((?x9195 (storage_s x_0 x_1 x_2 x_3 3 w)))
 (= ?x9195 ?x3403))))
 ))
 (let (($x7839 (forall ((n (_ BitVec 6)) )(let ((?x7153 (stack_s x_0 x_1 x_2 x_3 2 n)))
 (let ((?x8221 (stack_s x_0 x_1 x_2 x_3 3 n)))
 (let ((?x218 (sc_s 2)))
 (let ((?x5834 (bvadd (_ bv62 6) ?x218)))
 (let (($x431 (bvsle ?x5834 n)))
 (or $x431 (= ?x8221 ?x7153))))))))
 ))
 (let ((?x1906 (used_gas_s x_0 x_1 x_2 x_3 3)))
 (let ((?x218 (sc_s 2)))
 (let ((?x5211 (bvadd (_ bv63 6) ?x218)))
 (let ((?x3437 (stack_s x_0 x_1 x_2 x_3 2 ?x5211)))
 (let (($x247 (exc_halt_s 2)))
 (let (($x953 (= $x247 (or (exc_halt_s 1) (not (bvsle (_ bv0 6) (bvadd (_ bv61 6) (sc_s 1))))))))
 (let (($x9460 (forall ((w (_ BitVec 256)) )(let ((?x238 (storage_s x_0 x_1 x_2 x_3 1 w)))
 (let ((?x3403 (storage_s x_0 x_1 x_2 x_3 2 w)))
 (= ?x3403 ?x238))))
 ))
 (let (($x2006 (forall ((n (_ BitVec 6)) )(let ((?x6411 (stack_s x_0 x_1 x_2 x_3 1 n)))
 (let ((?x7153 (stack_s x_0 x_1 x_2 x_3 2 n)))
 (let ((?x154 (sc_s 1)))
 (let ((?x8937 (bvadd (_ bv61 6) ?x154)))
 (let (($x39 (bvsle ?x8937 n)))
 (or $x39 (= ?x7153 ?x6411))))))))
 ))
 (let ((?x4675 (used_gas_s x_0 x_1 x_2 x_3 2)))
 (let ((?x5834 (bvadd (_ bv62 6) ?x218)))
 (let ((?x8612 (stack_s x_0 x_1 x_2 x_3 2 ?x5834)))
 (let (($x2731 (= ?x8612 (stack_s x_0 x_1 x_2 x_3 1 (bvadd (_ bv62 6) (sc_s 1))))))
 (let ((?x154 (sc_s 1)))
 (let ((?x6951 (bvadd (_ bv63 6) ?x154)))
 (let ((?x6627 (stack_s x_0 x_1 x_2 x_3 1 ?x6951)))
 (let (($x5122 (not (= ((_ extract 6 6) (bvadd (_ bv1 7) (concat (_ bv0 1) ?x72))) (_ bv0 1)))))
 (let (($x189 (exc_halt_s 1)))
 (let (($x1271 (forall ((w (_ BitVec 256)) )(let ((?x3924 (storage_s x_0 x_1 x_2 x_3 0 w)))
 (let ((?x238 (storage_s x_0 x_1 x_2 x_3 1 w)))
 (= ?x238 ?x3924))))
 ))
 (let (($x4534 (forall ((n (_ BitVec 6)) )(let ((?x10114 (stack_s x_0 x_1 x_2 x_3 0 n)))
 (let ((?x6411 (stack_s x_0 x_1 x_2 x_3 1 n)))
 (or (= ?x6411 ?x10114) (bvsle (bvadd (_ bv61 6) (sc_s 0)) n)))))
 ))
 (let (($x5483 (= ?x154 (bvadd (_ bv1 6) ?x72))))
 (let (($x1886 (= (stack_s x_0 x_1 x_2 x_3 1 (bvadd (_ bv63 6) ?x72)) (stack_s x_0 x_1 x_2 x_3 0 (bvadd (_ bv63 6) ?x72)))))
 (let (($x8193 (= (stack_s x_0 x_1 x_2 x_3 1 (bvadd (_ bv62 6) ?x72)) (stack_s x_0 x_1 x_2 x_3 0 (bvadd (_ bv62 6) ?x72)))))
 (let ((?x5632 (bvadd (_ bv61 6) ?x72)))
 (let ((?x11490 (stack_s x_0 x_1 x_2 x_3 0 ?x5632)))
 (let (($x5027 (forall ((w (_ BitVec 256)) )(let ((?x3924 (storage_s x_0 x_1 x_2 x_3 0 w)))
 (= ?x3924 (_ bv0 256))))
 ))
 (let (($x4808 (= ?x6531 0)))
 (let (($x11124 (not $x57)))
 (let (($x7878 (= (stack_s x_0 x_1 x_2 x_3 0 (_ bv3 6)) x_3)))
 (let (($x3000 (= (stack_s x_0 x_1 x_2 x_3 0 (_ bv2 6)) x_2)))
 (let (($x9760 (= (stack_s x_0 x_1 x_2 x_3 0 (_ bv1 6)) x_1)))
 (let (($x8027 (= (stack_s x_0 x_1 x_2 x_3 0 (_ bv0 6)) x_0)))
 (let (($x289 (= ?x72 (_ bv4 6))))
 (and $x289 $x8027 $x9760 $x3000 $x7878 $x11124 $x4808 $x5027 (= ?x6627 ?x11490) (= (stack_s x_0 x_1 x_2 x_3 1 ?x5632) ?x11490) $x8193 $x1886 (= (used_gas_s x_0 x_1 x_2 x_3 1) (+ 3 ?x6531)) $x5483 $x4534 $x1271 (= $x189 (or $x57 (not (bvsle (_ bv0 6) ?x5632)) $x5122)) (= ?x3437 (stack_s x_0 x_1 x_2 x_3 1 (bvadd (_ bv61 6) ?x154))) (= (stack_s x_0 x_1 x_2 x_3 2 (bvadd (_ bv61 6) ?x218)) ?x6627) $x2731 (= ?x4675 (+ 3 (used_gas_s x_0 x_1 x_2 x_3 1))) (= ?x218 ?x154) $x2006 $x9460 $x953 (= ?x7597 ?x8612) (= ?x6064 ?x3437) (= ?x1906 (+ 3 ?x4675)) (= ?x275 ?x218) $x7839 $x11167 $x5862 (= ?x9537 ?x2499) (= (stack_s x_0 x_1 x_2 x_3 4 ?x8537) ?x2499) $x3173 $x2206 (= (stack_s x_0 x_1 x_2 x_3 4 ?x5458) ?x6064) (= (stack_s x_0 x_1 x_2 x_3 4 ?x3893) ?x7597) (= ?x4918 (+ 3 ?x1906)) (= ?x4305 (bvadd (_ bv1 6) ?x275)) $x6600 $x4815 (= $x7172 $x1034) $x7012 (= ?x8400 (+ 3 ?x4918)) (= (sc_s 5) ?x7978) $x5771 $x3115 $x7471 $x4233 (= (stack_s x_0 x_1 x_2 x_3 6 (bvadd (_ bv62 6) ?x926)) ?x10576) $x2613 (= ?x926 (sc_s 5)) $x7791 $x11662 $x10480 (= ?x5724 ?x10622) (= (stack_t x_0 x_1 x_2 x_3 1 ?x6829) ?x10622) $x8750 $x2995 $x7958 (= (used_gas_t x_0 x_1 x_2 x_3 1) (+ 3 ?x1526)) $x7135 $x232 $x3553 (= $x3508 (or $x56 $x6076 (not (bvsle (_ bv0 6) ?x6829)))) $x10718 (= ?x2957 (+ 3 (used_gas_t x_0 x_1 x_2 x_3 1))) (= ?x2714 ?x1126) $x7194 $x6843 $x7668 (= ?x8450 ?x8435) (= (stack_t x_0 x_1 x_2 x_3 3 ?x1348) ?x8435) $x1787 (= (stack_t x_0 x_1 x_2 x_3 3 ?x3527) ?x7578) (= ?x7323 (+ 3 ?x2957)) (= (sc_t 3) (bvadd (_ bv1 6) ?x2714)) $x3267 $x3728 (= $x6783 $x2918) $x1880 (= (stack_t x_0 x_1 x_2 x_3 4 (bvadd (_ bv61 6) ?x1098)) ?x8450) $x5890 $x11159 (= ?x1098 (sc_t 3)) $x5784 $x1027 $x10555 $x73 $x255 $x58 $x10092 $x697 (not (and $x7104 $x9653 $x10342 $x2922)))))))))))))))))))))))))))))))))))))))))))))))))))))))))))))))))))))))))))))))))))))))))))))))))))))))))))))))))))))))))))))
 )
(check-sat)
(get-proof)
